# Solution for model Objective
# Objective value = 6
M 6
W3 0
W4 0
W5 0
W9 0
W13 0
W14 0
W15 0
W22 0
W23 0
W24 0
W25 0
W26 0
W27 0
W28 0
W29 0
W30 0
W31 0
W34 0
W35 0
W39 0
W40 0
W41 0
W42 0
W43 0
W44 0
W50 0
W51 0
W52 0
W53 0
W54 0
W55 0
W63 0
W64 0
W65 0
W73 0
W74 0
W75 0
W76 0
W77 0
W78 0
W79 0
W80 0
W81 0
W0 0
W1 0
W2 0
W6 1
W7 3
W8 2
W10 0
W11 4
W12 6
W16 6
W17 3
W18 1
W19 2
W20 5
W21 4
W32 0
W33 4
W36 5
W37 0
W38 4
W45 0
W46 0
W47 0
W48 0
W49 0
W56 1
W57 3
W58 2
W59 4
W60 6
W61 5
W62 0
W66 3
W67 5
W68 2
W69 1
W70 0
W71 4
W72 6
d0_1 0
d0_2 1
d0_3 0
d0_4 0
d0_5 0
d0_6 0
d0_7 0
d0_8 0
d0_9 0
d0_0 0
d1_1 0
d1_2 0
d1_3 0
d1_4 0
d1_5 0
d1_6 1
d1_7 0
d1_8 0
d1_9 0
d1_0 0
d2_1 0
d2_2 0
d2_3 0
d2_4 0
d2_5 0
d2_6 0
d2_7 0
d2_8 0
d2_9 0
d2_0 1
d3_1 0
d3_2 0
d3_3 0
d3_4 0
d3_5 1
d3_6 0
d3_7 0
d3_8 0
d3_9 0
d3_0 0
d4_1 0
d4_2 0
d4_3 1
d4_4 0
d4_5 0
d4_6 0
d4_7 0
d4_8 0
d4_9 0
d4_0 0
d5_1 1
d5_2 0
d5_3 0
d5_4 0
d5_5 0
d5_6 0
d5_7 0
d5_8 0
d5_9 0
d5_0 0
d6_1 0
d6_2 1
d6_3 0
d6_4 0
d6_5 0
d6_6 0
d6_7 0
d6_8 0
d6_9 0
d6_0 0
d7_1 0
d7_2 0
d7_3 1
d7_4 0
d7_5 0
d7_6 0
d7_7 0
d7_8 0
d7_9 0
d7_0 0
d8_1 1
d8_2 0
d8_3 0
d8_4 0
d8_5 0
d8_6 0
d8_7 0
d8_8 0
d8_9 0
d8_0 0
d9_1 0
d9_2 0
d9_3 0
d9_4 0
d9_5 0
d9_6 1
d9_7 0
d9_8 0
d9_9 0
d9_0 0
d10_1 0
d10_2 0
d10_3 0
d10_4 1
d10_5 0
d10_6 0
d10_7 0
d10_8 0
d10_9 0
d10_0 0
d11_1 0
d11_2 0
d11_3 0
d11_4 0
d11_5 0
d11_6 0
d11_7 0
d11_8 0
d11_9 0
d11_0 1
d12_1 0
d12_2 0
d12_3 0
d12_4 0
d12_5 1
d12_6 0
d12_7 0
d12_8 0
d12_9 0
d12_0 0
d13_1 0
d13_2 0
d13_3 1
d13_4 0
d13_5 0
d13_6 0
d13_7 0
d13_8 0
d13_9 0
d13_0 0
d14_1 0
d14_2 1
d14_3 0
d14_4 0
d14_5 0
d14_6 0
d14_7 0
d14_8 0
d14_9 0
d14_0 0
d15_1 1
d15_2 0
d15_3 0
d15_4 0
d15_5 0
d15_6 0
d15_7 0
d15_8 0
d15_9 0
d15_0 0
d16_1 0
d16_2 0
d16_3 0
d16_4 0
d16_5 0
d16_6 1
d16_7 0
d16_8 0
d16_9 0
d16_0 0
d17_1 0
d17_2 0
d17_3 0
d17_4 1
d17_5 0
d17_6 0
d17_7 0
d17_8 0
d17_9 0
d17_0 0
d18_1 0
d18_2 0
d18_3 0
d18_4 0
d18_5 0
d18_6 0
d18_7 0
d18_8 0
d18_9 0
d18_0 1
d19_1 0
d19_2 0
d19_3 0
d19_4 0
d19_5 0
d19_6 1
d19_7 0
d19_8 0
d19_9 0
d19_0 0
d20_1 1
d20_2 0
d20_3 0
d20_4 0
d20_5 0
d20_6 0
d20_7 0
d20_8 0
d20_9 0
d20_0 0
d21_1 0
d21_2 1
d21_3 0
d21_4 0
d21_5 0
d21_6 0
d21_7 0
d21_8 0
d21_9 0
d21_0 0
d22_1 0
d22_2 0
d22_3 1
d22_4 0
d22_5 0
d22_6 0
d22_7 0
d22_8 0
d22_9 0
d22_0 0
d23_1 0
d23_2 0
d23_3 0
d23_4 1
d23_5 0
d23_6 0
d23_7 0
d23_8 0
d23_9 0
d23_0 0
